NAME 
ROWS
 N  OBJ
 L  R0      
 E  R1      
 E  R2      
 E  R3      
 E  R4      
 E  R5      
 E  R6      
 E  R7      
 E  R8      
 E  R9      
 E  R10     
 E  R11     
 E  R12     
 E  R13     
 E  R14     
 E  R15     
 E  R16     
 E  R17     
 E  R18     
 E  R19     
 E  R20     
COLUMNS
    MARKER    'MARKER'                 'INTORG'
    I0(10)    OBJ       -121
    I0(10)    R0        1
    I0(10)    R1        8
    I0(10)    R2        14
    I0(10)    R3        -1
    I0(10)    R4        7
    I0(10)    R5        4
    I0(10)    R7        10
    I0(10)    R8        18
    I0(10)    R9        15
    I0(10)    R20       1
    I1(11)    OBJ       68
    I1(11)    R0        38
    I1(11)    R1        4
    I1(11)    R3        1
    I1(11)    R4        7
    I1(11)    R5        8
    I1(11)    R6        1
    I1(11)    R7        12
    I1(11)    R8        2
    I1(11)    R9        12
    I1(11)    R10       15
    I1(11)    R20       1
    I2(10)    OBJ       -191
    I2(10)    R0        21
    I2(10)    R1        7
    I2(10)    R2        9
    I2(10)    R5        12
    I2(10)    R6        6
    I2(10)    R7        9
    I2(10)    R8        6
    I2(10)    R9        11
    I2(10)    R10       7
    I2(10)    R20       1
    I3(10)    OBJ       -122
    I3(10)    R0        88
    I3(10)    R2        7
    I3(10)    R3        8
    I3(10)    R4        4
    I3(10)    R5        13
    I3(10)    R6        13
    I3(10)    R7        9
    I3(10)    R8        13
    I3(10)    R10       19
    I3(10)    R20       1
    I4(10)    OBJ       57
    I4(10)    R0        -170
    I4(10)    R2        17
    I4(10)    R3        3
    I4(10)    R4        18
    I4(10)    R5        15
    I4(10)    R6        -1
    I4(10)    R8        3
    I4(10)    R9        7
    I4(10)    R10       -1
    I4(10)    R20       1
    I5(10)    OBJ       -104
    I5(10)    R0        -182
    I5(10)    R1        14
    I5(10)    R2        1
    I5(10)    R4        19
    I5(10)    R5        1
    I5(10)    R6        19
    I5(10)    R7        8
    I5(10)    R8        9
    I5(10)    R10       19
    I5(10)    R20       1
    I6(11)    OBJ       113
    I6(11)    R0        -28
    I6(11)    R1        15
    I6(11)    R2        7
    I6(11)    R3        16
    I6(11)    R4        3
    I6(11)    R5        1
    I6(11)    R6        16
    I6(11)    R7        9
    I6(11)    R8        18
    I6(11)    R10       7
    I6(11)    R20       1
    I7(10)    OBJ       -105
    I7(10)    R0        -45
    I7(10)    R3        18
    I7(10)    R4        9
    I7(10)    R5        11
    I7(10)    R6        9
    I7(10)    R7        1
    I7(10)    R8        7
    I7(10)    R9        9
    I7(10)    R10       7
    I7(10)    R20       1
    I8(11)    OBJ       112
    I8(11)    R0        153
    I8(11)    R1        -1
    I8(11)    R2        4
    I8(11)    R3        17
    I8(11)    R4        17
    I8(11)    R5        17
    I8(11)    R6        5
    I8(11)    R8        3
    I8(11)    R9        4
    I8(11)    R10       16
    I8(11)    R20       1
    I9(10)    OBJ       124
    I9(10)    R0        198
    I9(10)    R1        15
    I9(10)    R2        17
    I9(10)    R3        5
    I9(10)    R4        13
    I9(10)    R7        3
    I9(10)    R8        7
    I9(10)    R9        6
    I9(10)    R10       9
    I9(10)    R20       1
    MARKER    'MARKER'                 'INTEND'
    C10(13)   OBJ       8
    C10(13)   R0        -8
    C10(13)   R1        16
    C10(13)   R2        12
    C10(13)   R3        9
    C10(13)   R4        5
    C10(13)   R5        17
    C10(13)   R6        5
    C10(13)   R8        4
    C10(13)   R11       12
    C10(13)   R12       7
    C10(13)   R13       2
    C10(13)   R14       1
    C10(13)   R19       14
    C11(18)   OBJ       -10
    C11(18)   R0        -6
    C11(18)   R1        3
    C11(18)   R2        15
    C11(18)   R3        15
    C11(18)   R4        10
    C11(18)   R5        14
    C11(18)   R6        7
    C11(18)   R7        -1
    C11(18)   R8        17
    C11(18)   R9        17
    C11(18)   R10       17
    C11(18)   R11       10
    C11(18)   R13       5
    C11(18)   R14       5
    C11(18)   R15       2
    C11(18)   R16       18
    C11(18)   R17       1
    C11(18)   R18       7
    C12(17)   R0        -5
    C12(17)   R1        5
    C12(17)   R2        4
    C12(17)   R3        15
    C12(17)   R4        3
    C12(17)   R5        1
    C12(17)   R6        -1
    C12(17)   R7        12
    C12(17)   R8        5
    C12(17)   R9        4
    C12(17)   R11       5
    C12(17)   R12       10
    C12(17)   R13       8
    C12(17)   R14       19
    C12(17)   R17       3
    C12(17)   R18       8
    C12(17)   R19       2
    C13(17)   OBJ       -5
    C13(17)   R0        5
    C13(17)   R2        11
    C13(17)   R3        10
    C13(17)   R4        6
    C13(17)   R5        3
    C13(17)   R6        19
    C13(17)   R7        10
    C13(17)   R8        3
    C13(17)   R9        14
    C13(17)   R11       7
    C13(17)   R12       3
    C13(17)   R14       4
    C13(17)   R15       18
    C13(17)   R16       5
    C13(17)   R17       3
    C13(17)   R18       1
    C13(17)   R19       7
    C14(13)   OBJ       -7
    C14(13)   R0        -5
    C14(13)   R1        13
    C14(13)   R3        11
    C14(13)   R4        14
    C14(13)   R7        14
    C14(13)   R8        6
    C14(13)   R10       13
    C14(13)   R11       14
    C14(13)   R12       10
    C14(13)   R13       17
    C14(13)   R16       8
    C14(13)   R17       19
    C14(13)   R19       1
    C15(17)   OBJ       -7
    C15(17)   R0        9
    C15(17)   R1        10
    C15(17)   R2        16
    C15(17)   R3        18
    C15(17)   R4        12
    C15(17)   R6        2
    C15(17)   R7        6
    C15(17)   R8        15
    C15(17)   R9        8
    C15(17)   R10       3
    C15(17)   R11       19
    C15(17)   R12       10
    C15(17)   R13       6
    C15(17)   R14       3
    C15(17)   R17       19
    C15(17)   R18       5
    C15(17)   R19       16
    C16(18)   OBJ       9
    C16(18)   R0        -8
    C16(18)   R1        18
    C16(18)   R2        2
    C16(18)   R3        3
    C16(18)   R4        10
    C16(18)   R5        15
    C16(18)   R6        19
    C16(18)   R7        10
    C16(18)   R8        16
    C16(18)   R9        5
    C16(18)   R10       5
    C16(18)   R12       8
    C16(18)   R13       18
    C16(18)   R15       1
    C16(18)   R16       -1
    C16(18)   R17       15
    C16(18)   R18       4
    C16(18)   R19       6
    C17(14)   OBJ       6
    C17(14)   R0        -8
    C17(14)   R3        8
    C17(14)   R4        6
    C17(14)   R5        19
    C17(14)   R7        7
    C17(14)   R8        18
    C17(14)   R10       10
    C17(14)   R12       19
    C17(14)   R13       19
    C17(14)   R14       3
    C17(14)   R16       7
    C17(14)   R17       -1
    C17(14)   R18       6
    C17(14)   R19       16
    C18(17)   OBJ       -10
    C18(17)   R0        2
    C18(17)   R1        19
    C18(17)   R2        19
    C18(17)   R3        1
    C18(17)   R4        19
    C18(17)   R6        19
    C18(17)   R7        16
    C18(17)   R9        9
    C18(17)   R10       14
    C18(17)   R11       16
    C18(17)   R12       8
    C18(17)   R13       3
    C18(17)   R14       8
    C18(17)   R15       19
    C18(17)   R16       2
    C18(17)   R18       9
    C18(17)   R19       16
    C19(13)   OBJ       -1
    C19(13)   R0        -3
    C19(13)   R2        4
    C19(13)   R4        14
    C19(13)   R5        19
    C19(13)   R6        11
    C19(13)   R8        10
    C19(13)   R9        11
    C19(13)   R10       10
    C19(13)   R11       18
    C19(13)   R12       6
    C19(13)   R13       19
    C19(13)   R16       16
    C19(13)   R19       8
    C20(1)    R1        1
    C21(1)    R2        1
    C22(1)    R3        1
    C23(1)    R4        1
    C24(1)    R5        1
    C25(1)    R6        1
    C26(1)    R7        1
    C27(1)    R8        1
    C28(1)    R9        1
    C29(1)    R10       1
    C30(1)    R11       1
    C31(1)    R12       1
    C32(1)    R13       1
    C33(1)    R14       1
    C34(1)    R15       1
    C35(1)    R16       1
    C36(1)    R17       1
    C37(1)    R18       1
    C38(1)    R19       1
    C39(1)    R20       1
RHS
    RHS1      R0        1.5985593220338927e+02
    RHS1      R1        51
    RHS1      R2        98
    RHS1      R3        97
    RHS1      R4        50
    RHS1      R5        51
    RHS1      R6        82
    RHS1      R7        79
    RHS1      R8        92
    RHS1      R9        87
    RHS1      R10       99
    RHS1      R11       75
    RHS1      R12       95
    RHS1      R13       51
    RHS1      R14       81
    RHS1      R15       77
    RHS1      R16       84
    RHS1      R17       52
    RHS1      R18       62
    RHS1      R19       83
    RHS1      R20       3
BOUNDS
 UP BND1      I0(10)    2
 UP BND1      I1(11)    2
 UP BND1      I2(10)    2
 UP BND1      I3(10)    2
 UP BND1      I4(10)    2
 UP BND1      I5(10)    2
 UP BND1      I6(11)    2
 UP BND1      I7(10)    2
 UP BND1      I8(11)    2
 UP BND1      I9(10)    2
ENDATA
